Route #1: 26 12 72 39 9 32 44 3 40
Route #2: 58 10 31 55 25 50 18 24 49 16
Route #3: 33 63 23 56 41 43 42 64 22 1 73
Route #4: 2 62 28 61 21 74 48 29 45
Route #5: 5 47 36 69 71 60 70 20 37 15 57 13 54
Route #6: 19 14 59 66 11 65 38
Route #7: 27 52 34 46 8 35 53 7 67
Route #8: 17 51 6 68 30 4 75
Cost 763